100
300
210
209
209
207
204
202
201
201
200
197
197
197
197
196
194
188
186
184
182
181
181
180
176
176
173
172
172
172
170
170
169
169
168
168
163
163
160
158
157
157
156
155
153
152
152
150
149
145
145
144
144
143
142
139
138
137
135
128
126
125
123
123
122
120
116
110
109
106
104
101
101
98
98
97
95
94
94
94
92
91
90
86
86
85
84
80
78
76
76
72
72
72
70
67
67
64
63
61
60
60
